************************************************************************
file with basedata            : md336_.bas
initial value random generator: 77373772
************************************************************************
projects                      :  1
jobs (incl. supersource/sink ):  22
horizon                       :  162
RESOURCES
  - renewable                 :  2   R
  - nonrenewable              :  2   N
  - doubly constrained        :  0   D
************************************************************************
PROJECT INFORMATION:
pronr.  #jobs rel.date duedate tardcost  MPM-Time
    1     20      0       18       18       18
************************************************************************
PRECEDENCE RELATIONS:
jobnr.    #modes  #successors   successors
   1        1          3           2   3   4
   2        3          3           5   9  11
   3        3          3           7   8  20
   4        3          1          15
   5        3          3           6   8  10
   6        3          3          12  14  16
   7        3          3           9  11  17
   8        3          2          12  13
   9        3          2          12  21
  10        3          3          14  16  19
  11        3          2          13  21
  12        3          1          19
  13        3          1          19
  14        3          1          15
  15        3          2          17  18
  16        3          2          17  18
  17        3          1          21
  18        3          1          20
  19        3          1          22
  20        3          1          22
  21        3          1          22
  22        1          0        
************************************************************************
REQUESTS/DURATIONS:
jobnr. mode duration  R 1  R 2  N 1  N 2
------------------------------------------------------------------------
  1      1     0       0    0    0    0
  2      1     1       2   10    0    4
         2     3       1    6    0    4
         3     9       1    3    0    3
  3      1     3       6    6    7    0
         2     6       6    4    0    2
         3    10       5    3    7    0
  4      1     5       5    2    0    2
         2     8       2    2    6    0
         3    10       1    2    4    0
  5      1     1      10    8    0    7
         2     3       8    4    0    6
         3     7       7    2    0    5
  6      1     1       9    6    0    1
         2     1       8    6    9    0
         3     3       5    6    0    1
  7      1     2       8    7    9    0
         2     4       8    6    7    0
         3     7       7    6    0   10
  8      1     1       9    6    0    8
         2     4       7    5    3    0
         3     5       2    5    2    0
  9      1     2       5    8    2    0
         2     4       3    5    0    6
         3     5       2    4    0    6
 10      1     1       2    2    0    5
         2     5       2    2    0    3
         3     9       2    2    9    0
 11      1     7       8    7    5    0
         2     7       9    6    6    0
         3    10       7    4    0    1
 12      1     6       9    8    0    7
         2     7       6    6    4    0
         3     8       5    6    0    6
 13      1     2       5    9    6    0
         2     7       2    8    4    0
         3     9       1    6    3    0
 14      1     1       5    7    0   10
         2     2       4    7    4    0
         3     9       3    7    0    7
 15      1     2       8    6    0    4
         2     5       8    4    9    0
         3     5       7    5    0    2
 16      1     1       6    6    0    1
         2     4       5    5    0    1
         3     9       5    5    3    0
 17      1     2       8    8    0    4
         2     4       6    7    0    4
         3    10       3    7    5    0
 18      1     1       6    4    0    4
         2     5       5    3    7    0
         3    10       4    3    6    0
 19      1     4       1    4   10    0
         2     5       1    3    0    4
         3     8       1    3    0    3
 20      1     1       9    4    3    0
         2    10       7    3    0    2
         3    10       4    3    2    0
 21      1     6       9    3    0    6
         2     7       7    2    0    5
         3     9       2    2    0    4
 22      1     0       0    0    0    0
************************************************************************
RESOURCEAVAILABILITIES:
  R 1  R 2  N 1  N 2
   35   28   53   50
************************************************************************
MAXIMAL LAGS:
from  to  type  delay
    1   12   ES      0
    1    2   ES      0
    2   12   ES      0
    1    3   ES      0
    3   12   ES      0
    1    4   ES      0
    4   12   ES      0
    1    5   ES      0
    5   12   ES      0
    1    6   ES      0
    6   12   ES      0
    1    7   ES      0
    7   12   ES      0
    1    8   ES      0
    8   12   ES      0
    1    9   ES      0
    9   12   ES      0
    1   10   ES      0
   10   12   ES      0
    1   11   ES      0
   11   12   ES      0
    1   12   ES      0
    2    5   SS      2
    2    5   SE     -5
    2    5   ES      5
    2    5   EE      1
    2    9   SS     -3
    2    9   SE      1
    2    9   ES     -6
    2    9   EE    -10
    2   11   SS      3
    2   11   SE      9
    2   11   ES     -1
    2   11   EE     -7
    3    7   SS    -12
    3    7   SE      9
    3    7   ES      3
    3    7   EE      9
    3    8   SS     -9
    3    8   SE      0
    3    8   ES      2
    3    8   EE      4
    3   20   SS      9
    3   20   SE      9
    3   20   ES    -10
    3   20   EE     -9
    4   15   SS     -8
    4   15   SE      0
   15    4   SE      0
    4   15   ES      0
    4   15   EE     10
    5    6   SS      6
    5    6   SE     -9
    5    6   ES     11
    5    6   EE     -7
    5    8   SS    -10
    5    8   SE     -1
    5    8   ES     -6
    5    8   EE     -2
    5   10   SS     -6
    5   10   SE      7
    5   10   ES      0
    5   10   EE     -9
    6   14   SS     -5
    6   14   SE      1
    6   14   ES     11
    6   14   EE      3
    6   16   SS     -4
    6   16   SE     12
    6   16   ES     10
    6   16   EE     12
    7    9   SS      6
    7    9   SE      6
    7    9   ES     -4
    7    9   EE     12
    7   11   SS      8
    7   11   SE      0
    7   11   ES     -1
    7   11   EE      3
    7   17   SS      9
    7   17   SE      7
    7   17   ES      0
    7   17   EE      3
    8   13   SS      4
    8   13   SE     -4
    8   13   ES     -8
    8   13   EE     12
    9   21   SS      2
    9   21   SE     -9
    9   21   ES     -9
    9   21   EE     -4
   10   14   SS      3
   10   14   SE      3
   10   14   ES     -5
   10   14   EE      8
   10   16   SS     -8
   10   16   SE    -12
   10   16   ES     -9
   10   16   EE     11
   10   19   SS    -11
   10   19   SE    -10
   10   19   ES      3
   10   19   EE      9
   11   13   SS    -12
   11   13   SE     -7
   11   13   ES      0
   11   13   EE      7
   11   21   SS      9
   11   21   SE     -2
   11   21   ES     -8
   11   21   EE     -3
   12   19   SS      7
   12   19   SE      7
   12   19   ES     -9
   12   19   EE     12
   13   19   SS    -10
   13   19   SE      9
   13   19   ES     12
   13   19   EE      4
   14   15   SS     12
   14   15   SE      3
   14   15   ES      2
   14   15   EE     -6
   15   17   SS     -3
   15   17   SE      9
   15   17   ES      3
   15   17   EE      3
   15   18   SS      4
   15   18   SE     -4
   15   18   ES      5
   15   18   EE     -2
   16   17   SS      5
   16   17   SE      5
   16   17   ES    -12
   16   17   EE     12
   16   18   SS    -11
   16   18   SE      1
   16   18   ES     -9
   16   18   EE      0
   17   21   SS      2
   17   21   SE     -2
   17   21   ES      0
   17   21   EE      2
   18   20   SS      2
   18   20   SE    -11
   18   20   ES    -11
   18   20   EE     -7
   19   22   SS      5
   19   22   SE      9
   19   22   ES     12
   19   22   EE     -3
   20   22   SS     10
   20   22   SE     -7
   20   22   ES      3
   20   22   EE      1
   21   22   SS     -8
   21   22   SE     -3
   21   22   ES     10
   21   22   EE      0
************************************************************************
